results/x-long/X-n143-k7.vrp_seed-40.vrp.sol
Route #1: 130 9 71 50 49 51 88 52 20 101 46 67 58 135 59 40 70 124 115 126
Route #2: 25 36 16 32 7 19 97 120 85 35 91 28 133 18 74 81 100 11 44 64 61 45 89 12 54
Route #3: 109 56 83 142 55 137 82 123 125 33 21 23 132 104 62 96 47 90 65 118
Route #4: 136 116 17 93 5 107 1 111 72 60 79 98 31 6 102 53 110 114 43 8 86 41 2 78
Route #5: 73 57 95 139 14 37 122 77 22 119 80 39 29 42 131 69 140 141 15 27 106 24 66 99
Route #6: 4 48 87 30 121 34 138 105 129 76 3 94 75 26 112 63 113 10 103 38 134 92 108 117
Route #7: 13 127 84 128 68
Cost 15726.000000